submitit INFO (2023-05-02 18:51:31,353) - Starting with JobEnvironment(job_id=27747, hostname=cpunode3, local_rank=3(5), node=0(1), global_rank=3(5))
submitit INFO (2023-05-02 18:51:31,353) - Loading pickle: /h/30/pashootan/Matrix-Mult-CP/src/../logs/4/3x1x3_9_May02_18:51:29/27747_submitted.pkl
 ! --------------------------------------------------- CP Optimizer 22.1.1.0 --
 ! Satisfiability problem - 135 variables, 81 constraints
 ! TimeLimit            = 7200
 ! Workers              = 8
 ! LogPeriod            = 10000000
 ! RandomSeed           = 3470
 ! Initial process time : 0.00s (0.00s extraction + 0.00s propagation)
 !  . Log search space  : 214.0 (before), 214.0 (after)
 !  . Memory usage      : 530.7 kB (before), 530.7 kB (after)
 ! Using parallel search with 8 workers.
 ! ----------------------------------------------------------------------------
 !               Branches  Non-fixed    W       Branch decision
 *                  41822  0.52s        4        -1 != W1_8
 ! ----------------------------------------------------------------------------
 ! Search completed, 1 solution found.
 ! ----------------------------------------------------------------------------
 ! Number of branches     : 343036
 ! Number of fails        : 150589
 ! Total memory usage     : 10.4 MB (10.4 MB CP Optimizer + 0.1 MB Concert)
 ! Time spent in solve    : 0.53s (0.53s engine + 0.00s extraction)
 ! Search speed (br. / s) : 647237.7
 ! ----------------------------------------------------------------------------
Feasible
Model is valid
Saving solution to: /h/30/pashootan/Matrix-Mult-CP/logs/4/3x1x3_9_May02_18:51:29/27747_3_solution.txt
Saving stats to: /h/30/pashootan/Matrix-Mult-CP/logs/4/3x1x3_9_May02_18:51:29/27747_3_stats.csv
submitit INFO (2023-05-02 18:51:32,300) - Job completed successfully
